
  22   10
  10   10   10   10   10   10   10   10   10   10

   0   0   0   0   0   0   0   0   0   0   0   3 2 3 4 
   3   0  10   0   0   0   0   0   0   0   0   2 6 5 
   4   0   0  10   0   0   0   0   0   0   0   2 6 5 
   9   0   0   0   0   0   0   0   0  10   0   1 5 
  10   0   0   0   0   0   0   0  10   0   0   2 8 7 
   7   0   0   0   0  10   0   0   0   0   0   1 7 
   7   0  10   0   0   0   0   0   0   0   0   2 10 9 
   5   0   0   0   0   0  10   0   0   0   0   1 9 
  10   0   0   0   0   0   0   0   0  10   0   2 12 11 
  10   0   0   0   0   0  10   0   0   0   0   1 11 
   6   0   0   0   0  10   0   0   0   0   0   2 14 13 
   3  10   0   0   0   0   0   0   0   0   0   2 15 14 
   1   0   0   0   0   0  10   0   0   0   0   2 17 15 
   8  10   0   0   0   0   0   0   0   0   0   3 21 18 17 
   8  10   0   0   0   0   0   0   0   0   0   1 16 
   6   0   0   0   0   0   0   0   0   0  10   3 21 20 18 
  10   0   0   0   0   0   0  10   0   0   0   2 20 19 
   5   0   0   0   0   0   0   0   0  10   0   1 19 
   9   0   0   0   0   0  10   0   0   0   0   1 22
   6   0   0   0   0   0  10   0   0   0   0   1 22
   2   0   0  10   0   0   0   0   0   0   0   1 22
   0   0   0   0   0   0   0   0   0   0   0   0 
